unsat
(:max-memory         18.62
 :memory             18.52
 :nlsat-arith-var    3
 :nlsat-atoms        5
 :nlsat-bool-var     1
 :nlsat-clauses      5
 :nlsat-conflicts    1
 :nlsat-propagations 3
 :nlsat-stages       1
 :num-allocs         113704
 :rlimit-count       3067
 :time               0.00
 :total-time         0.01)
